(set-logic QF_S)
(declare-fun var0 () Int)
(declare-fun var1 () Int)
(declare-fun var2 () String)
(declare-fun var3 () String)
(declare-fun var4 () Int)
(declare-fun var5 () String)
(declare-fun var6 () String)
(declare-fun var7 () Int)
(assert (not (> var0 var1)))
(assert (<= (str.indexof var2 var3 var4) (str.to.int var5)))
(assert (str.in.re (str.at var6 var7) (re.+ re.allchar)))
(assert (str.contains (str.at "UYh&a" var1) (str.substr var3 var4 var1)))
(check-sat)